c This Formular was created for testing purposes
c
c    horn? no
c    forced? no
c    mixed sat? no
c    clause length = 3
c
p cnf
1	2	3
4	5	6
7	8	9
10	11	12
13	14	15
16	17	18
19	20	1
-4	15	2
-10	12	4
8	13	-7
%
0
